(set-logic HORN)
(set-info :source |
    Benchmark: C_VC
    Output by Princess (http://www.philipp.ruemmer.org/princess.shtml)
|)
(set-info :status sat)
;===============================================================================
; Encoding of Heap sorts and operations
;-------------------------------------------------------------------------------
(define-sort Addr() Int)
(declare-datatypes ((AddrRange 0))
                   (((AddrRange (AddrRangeStart Addr) (AddrRangeSize Int)))))

(declare-datatypes ((HeapObject 0) (node 0))
                   (((O_Int (getInt Int)) (O_UInt (getUInt Int)) (O_Addr (getAddr Addr)) (O_node (getnode node)) (defObj))
                   ((node (next Addr) (inner Addr)))))
(declare-datatypes ((BatchAllocResHeap 0) (AllocResHeap 0) (Heap 0))
                   (((BatchAllocResHeap   (newBatchHeap Heap) (newAddrRange AddrRange)))
                   ((AllocResHeap   (newHeap Heap) (newAddr Addr)))
                    ((HeapCtor (HeapSize Int)
                               (HeapContents (Array Addr HeapObject))))))
(define-fun nullAddr  () Addr 0)
(define-fun validHeap     ((h Heap) (p Addr)) Bool
  (and (>= (HeapSize h) p) (> p 0)))
(define-fun emptyHeap () Heap (
  HeapCtor 0 (( as const (Array Addr HeapObject)) defObj)))
(define-fun readHeap ((h Heap) (p Addr)) HeapObject
  (ite (validHeap h p)
       (select (HeapContents h) p)
       defObj))
(define-fun writeHeap ((h Heap) (p Addr) (o HeapObject)) Heap
  (ite (validHeap h p)
       (HeapCtor (HeapSize h) (store (HeapContents h) p o))
       h))
(define-fun allocHeap   ((h Heap) (o HeapObject)) AllocResHeap
  (AllocResHeap (HeapCtor (+ 1 (HeapSize h))
                    (store (HeapContents h) (+ 1 (HeapSize h)) o))
          (+ 1 (HeapSize h))))
(define-fun Heap-eq     ((h1 Heap) (h2 Heap)) Bool
  (forall ((p Addr))
          (and (= (validHeap h1 p) (validHeap h2 p))
               (= (readHeap h1 p) (readHeap h2 p)))))
(define-fun nthAddrRange((ar AddrRange) (n Int)) Addr
  (ite (and (>= n 0) (< n (AddrRangeSize ar)))
       (+ (AddrRangeStart ar) n)
       nullAddr))
(define-fun withinHeap ((ar AddrRange ) (p Addr)) Bool
  (and (>= p (AddrRangeStart ar)) (< p (+ (AddrRangeStart ar) (AddrRangeSize ar)))))

(declare-fun batchAllocHeap     (Heap Heap HeapObject Int Int) Bool)
(declare-fun batchAllocPostHeap (Heap Heap HeapObject Int) Bool)

(assert (forall ((h1 Heap) (h2 Heap) (o HeapObject) (n1 Int) (n2 Int))
                (=> (and (> n2 0) (batchAllocHeap h1 h2 o n1 n2))
                   (batchAllocHeap h1 (newHeap (allocHeap h2 o)) o n1 (- n2 1)))))
(assert (forall ((h1 Heap) (h2 Heap) (o HeapObject) (n1 Int) (n2 Int))
                (=> (and (<= n2 0) (batchAllocHeap h1 h2 o n1 n2))
                   (batchAllocPostHeap h1 h2 o n1))))

(declare-fun batchWriteHeap     (Heap Heap Addr Addr HeapObject Int Int) Bool)
(declare-fun batchWritePostHeap (Heap Heap Addr HeapObject Int) Bool)

(assert (forall ((h1 Heap) (h2 Heap) (a1 Addr) (a2 Addr) (o HeapObject) (n1 Int) (n2 Int))
                (=> (and (> n2 0) (batchWriteHeap h1 h2 a1 a2 o n1 n2))
                   (batchWriteHeap h1 (writeHeap h2 a2 o) a1 (+ a2 1) o n1 (- n2 1)))))
(assert (forall ((h1 Heap) (h2 Heap) (a1 Addr) (a2 Addr) (o HeapObject) (n1 Int) (n2 Int))
                (=> (and (<= n2 0) (batchWriteHeap h1 h2 a1 a2 o n1 n2))
                   (batchWritePostHeap h1 h2 a1 o n1))))

;===============================================================================
(declare-fun inv_main11 (Heap Int Int Int Int Addr) Bool)
(declare-fun inv_main26 (Heap Int Int Int Int Addr Int Int Int Addr Int) Bool)
(declare-fun inv_main29 (Heap Int Int Int Int Addr Int Int Int Addr) Bool)
(declare-fun inv_main31 (Heap Int Int Int Int Addr Int Int Int Addr Addr) Bool)
(declare-fun inv_main33 (Heap Int Int Int Int Addr Int Int Int Addr Int Addr) Bool)
(declare-fun inv_main37 (Heap Int Int Int Int Addr Int Int Int Addr Int Addr Addr) Bool)
(declare-fun inv_main40 (Heap Int Int Int Int Addr Int Int Int Addr Int Addr Addr Int) Bool)
(declare-fun inv_main46 (Heap Int Int Int Int Addr Int Int Addr) Bool)
(declare-fun inv_main49 (Heap Int Int Int Int Addr Int Int Addr Addr) Bool)
(declare-fun inv_main5 (Heap Int Int Int Int) Bool)
(declare-fun inv_main51 (Heap Int Int Int Int Addr Int Int Addr Addr) Bool)
(declare-fun inv_main52 (Heap Int Int Int Int Addr Int Int Addr Addr) Bool)
(declare-fun inv_main56 (Heap Int Int Int Int Addr Addr) Bool)
(declare-fun inv_main62 (Heap Int Int Int Int Addr Addr) Bool)
(declare-fun inv_main69 (Heap Int Int Int Int Addr Addr Addr Int) Bool)
(declare-fun inv_main72 (Heap Int Int Int Int Addr Addr Int) Bool)
(declare-fun inv_main8 (Heap Int Int Int Int Addr) Bool)
(declare-fun inv_main84 (Heap Int Int Int Int Addr Addr Addr) Bool)
(declare-fun inv_main85 (Heap Int Int Int Int Addr Addr Addr Addr) Bool)
(declare-fun inv_main88 (Heap Int Int Int Int Addr Addr Addr Addr Addr) Bool)
(declare-fun inv_main92 (Heap Int Int Int Int Addr Addr) Bool)
(assert (forall ((var0 Int) (var1 Int) (var2 Heap)) (or (not (= var2 emptyHeap)) (inv_main5 var2 3 5 var1 var0))))
(assert (forall ((var0 Addr) (var1 Addr) (var2 Int) (var3 Int) (var4 Int) (var5 Addr) (var6 Int) (var7 Int) (var8 Int) (var9 Int) (var10 Heap)) (or (not (and (and (inv_main31 var10 var9 var8 var7 var6 var5 var4 var3 var2 var1 var0) (is-O_node (readHeap var10 var1))) (is-O_node (readHeap var10 var1)))) (inv_main29 (writeHeap var10 var1 (O_node (node (next (getnode (readHeap var10 var1))) var0))) var9 var8 var7 var6 var5 var4 var3 var2 var1))))
(assert (forall ((var0 Addr) (var1 Addr) (var2 Int) (var3 Addr) (var4 Int) (var5 Int) (var6 Int) (var7 Addr) (var8 Int) (var9 Int) (var10 Int) (var11 Int) (var12 Heap) (var13 Addr) (var14 Addr) (var15 Int) (var16 Addr) (var17 Int) (var18 Int) (var19 Int) (var20 Addr) (var21 Int) (var22 Int) (var23 Int) (var24 Int) (var25 Heap)) (or (not (and (and (and (and (and (and (and (and (and (and (and (and (and (and (and (inv_main37 var25 var24 var23 var22 var21 var20 var19 var18 var17 var16 var15 var14 var13) (= var0 var13)) (= var1 var14)) (= var2 var15)) (= var3 var16)) (= var4 var17)) (= var5 var18)) (= var6 var19)) (= var7 var20)) (= var8 var21)) (= var9 var22)) (= var10 var23)) (= var11 var24)) (= var12 (writeHeap var25 var13 (O_node (node var14 (inner (getnode (readHeap var25 var13)))))))) (is-O_node (readHeap var25 var13))) (is-O_node (readHeap var25 var13)))) (inv_main33 var12 var11 var10 var9 var8 var7 var6 var5 var4 var3 (+ var2 (* (- 1) 1)) var0))))
(assert (forall ((var0 Int) (var1 Int) (var2 Int) (var3 Int) (var4 Addr) (var5 Int) (var6 Int) (var7 Int) (var8 Int) (var9 node) (var10 Heap) (var11 Addr) (var12 Addr) (var13 Int) (var14 Int) (var15 Int) (var16 Int) (var17 Heap)) (or (not (and (and (and (and (and (and (and (and (and (and (and (and (and (inv_main11 var17 var16 var15 var14 var13 var12) (<= 0 (+ (+ (* (- 1) var13) 10) (* (- 1) 1)))) (not (= var0 0))) (= var11 (newAddr (allocHeap var17 (O_node var9))))) (= var1 var14)) (= var2 var14)) (= var3 5)) (= var4 var12)) (= var5 var13)) (= var6 var14)) (= var7 var15)) (= var8 var16)) (= var10 (newHeap (allocHeap var17 (O_node var9))))) (not (= nullAddr var11)))) (inv_main33 var10 var8 var7 var6 var5 var4 var3 var2 var1 var11 var1 nullAddr))))
(assert (forall ((var0 Int) (var1 Addr) (var2 Addr) (var3 Int) (var4 Addr) (var5 Int) (var6 Int) (var7 Int) (var8 Addr) (var9 Int) (var10 Int) (var11 Int) (var12 Int) (var13 Heap)) (or (not (inv_main40 var13 var12 var11 var10 var9 var8 var7 var6 var5 var4 var3 var2 var1 var0)) (inv_main40 var13 var12 var11 var10 var9 var8 var7 var6 var5 var4 var3 var2 var1 var0))))
(assert (forall ((var0 Addr) (var1 Int) (var2 Addr) (var3 Int) (var4 Int) (var5 Int) (var6 Addr) (var7 Int) (var8 Int) (var9 Int) (var10 Int) (var11 node) (var12 Heap) (var13 Addr) (var14 Addr) (var15 Int) (var16 Addr) (var17 Int) (var18 Int) (var19 Int) (var20 Addr) (var21 Int) (var22 Int) (var23 Int) (var24 Int) (var25 Heap)) (or (not (and (and (and (and (and (and (and (and (and (and (and (and (and (and (and (inv_main33 var25 var24 var23 var22 var21 var20 var19 var18 var17 var16 var15 var14) (<= 0 (+ var15 (* (- 1) 1)))) (= var13 (newAddr (allocHeap var25 (O_node var11))))) (= var0 var14)) (= var1 var15)) (= var2 var16)) (= var3 var17)) (= var4 var18)) (= var5 var19)) (= var6 var20)) (= var7 var21)) (= var8 var22)) (= var9 var23)) (= var10 var24)) (= var12 (newHeap (allocHeap var25 (O_node var11))))) (= nullAddr var13))) (inv_main40 var12 var10 var9 var8 var7 var6 var5 var4 var3 var2 var1 var0 var13 1))))
(assert (forall ((var0 Addr) (var1 Addr) (var2 Addr) (var3 Int) (var4 Int) (var5 Int) (var6 Heap) (var7 Addr) (var8 Int) (var9 Int) (var10 Int) (var11 Addr) (var12 Addr) (var13 Addr) (var14 Int) (var15 Int) (var16 Int) (var17 Int) (var18 Heap)) (or (not (and (and (and (and (and (and (and (and (and (and (and (and (and (and (and (inv_main69 var18 var17 var16 var15 var14 var13 var12 var11 var10) (= var7 (next (getnode (readHeap var18 var11))))) (= var8 var10)) (= var0 var11)) (= var1 var12)) (= var2 var13)) (= var3 var14)) (= var9 var15)) (= var4 var16)) (= var5 var17)) (= var6 var18)) (is-O_node (readHeap var18 var11))) (= var7 nullAddr)) (not (= var9 var8))) (= 5 var8)) (= 3 var9))) (inv_main56 var6 var5 var4 (+ (+ 1 var9) 1) var3 var2 var1))))
(assert (forall ((var0 Addr) (var1 Addr) (var2 Addr) (var3 Int) (var4 Int) (var5 Heap) (var6 Addr) (var7 Int) (var8 Int) (var9 Int) (var10 Int) (var11 Addr) (var12 Addr) (var13 Addr) (var14 Int) (var15 Int) (var16 Int) (var17 Int) (var18 Heap)) (or (not (and (and (and (and (and (and (and (and (and (and (and (and (and (and (and (and (inv_main69 var18 var17 var16 var15 var14 var13 var12 var11 var10) (= var6 (next (getnode (readHeap var18 var11))))) (= var8 var10)) (= var0 var11)) (= var1 var12)) (= var2 var13)) (= var3 var14)) (= var9 var15)) (= var7 var16)) (= var4 var17)) (= var5 var18)) (is-O_node (readHeap var18 var11))) (= var6 nullAddr)) (not (= var9 var8))) (or (not (= 3 var9)) (not (= 5 var8)))) (<= 0 (+ (+ (* (- 1) var9) var7) (* (- 1) 1)))) (= (+ var9 1) var8))) (inv_main56 var5 var4 var7 (+ var9 1) var3 var2 var1))))
(assert (forall ((var0 Addr) (var1 Addr) (var2 Int) (var3 Int) (var4 Heap) (var5 Addr) (var6 Int) (var7 Int) (var8 Addr) (var9 Addr) (var10 Int) (var11 Int) (var12 Int) (var13 Int) (var14 Heap)) (or (not (and (and (and (and (and (and (and (and (and (and (and (and (and (inv_main62 var14 var13 var12 var11 var10 var9 var8) (= var5 (inner (getnode (readHeap var14 var8))))) (= var0 var8)) (= var1 var9)) (= var2 var10)) (= var7 var11)) (= var6 var12)) (= var3 var13)) (= var4 var14)) (is-O_node (readHeap var14 var8))) (= var5 nullAddr)) (not (= var7 0))) (<= 0 (+ (+ (* (- 1) var7) var6) (* (- 1) 1)))) (= (+ var7 1) 0))) (inv_main56 var4 var3 var6 (+ var7 1) var2 var1 var0))))
(assert (forall ((var0 Int) (var1 Addr) (var2 Addr) (var3 Int) (var4 Int) (var5 Int) (var6 Int) (var7 Heap) (var8 Addr) (var9 Int) (var10 Addr) (var11 Addr) (var12 Int) (var13 Int) (var14 Int) (var15 Int) (var16 Heap)) (or (not (and (and (and (and (and (and (and (and (and (and (and (inv_main72 var16 var15 var14 var13 var12 var11 var10 var9) (= var8 (next (getnode (readHeap var16 var10))))) (= var0 var9)) (= var1 var10)) (= var2 var11)) (= var3 var12)) (= var4 var13)) (= var5 var14)) (= var6 var15)) (= var7 var16)) (is-O_node (readHeap var16 var10))) (= var8 nullAddr))) (inv_main56 var7 var6 var5 (+ var4 1) var3 var2 var8))))
(assert (forall ((var0 Addr) (var1 Addr) (var2 Int) (var3 Int) (var4 Int) (var5 Int) (var6 Heap)) (or (not (and (and (and (inv_main56 var6 var5 var4 var3 var2 var1 var0) (not (= nullAddr var0))) (not (<= 0 (+ (+ (* (- 1) var4) var3) (* (- 1) 1))))) (= var0 nullAddr))) (inv_main56 var6 var5 var4 (+ var3 1) var2 var1 var0))))
(assert (forall ((var0 Addr) (var1 Int) (var2 Int) (var3 Int) (var4 Int) (var5 Heap)) (or (not (and (inv_main8 var5 var4 var3 var2 var1 var0) (not (<= 0 (+ var3 (* (- 1) var2)))))) (inv_main56 var5 var4 var3 var4 var1 var0 var0))))
(assert (forall ((var0 Addr) (var1 Int) (var2 Addr) (var3 Int) (var4 Int) (var5 Int) (var6 Addr) (var7 Int) (var8 Int) (var9 Int) (var10 Int) (var11 Heap)) (or (not (and (inv_main33 var11 var10 var9 var8 var7 var6 var5 var4 var3 var2 var1 var0) (not (<= 0 (+ var1 (* (- 1) 1)))))) (inv_main31 var11 var10 var9 var8 var7 var6 var5 var4 var3 var2 var0))))
(assert (forall ((var0 Addr) (var1 Addr) (var2 Addr) (var3 Int) (var4 Int) (var5 Heap) (var6 Addr) (var7 Int) (var8 Int) (var9 Int) (var10 Int) (var11 Addr) (var12 Addr) (var13 Addr) (var14 Int) (var15 Int) (var16 Int) (var17 Int) (var18 Heap)) (or (not (and (and (and (and (and (and (and (and (and (and (and (and (and (and (and (inv_main69 var18 var17 var16 var15 var14 var13 var12 var11 var10) (= var6 (next (getnode (readHeap var18 var11))))) (= var8 var10)) (= var0 var11)) (= var1 var12)) (= var2 var13)) (= var3 var14)) (= var9 var15)) (= var7 var16)) (= var4 var17)) (= var5 var18)) (is-O_node (readHeap var18 var11))) (= var6 nullAddr)) (not (= var9 var8))) (or (not (= 3 var9)) (not (= 5 var8)))) (or (not (= (+ var9 1) var8)) (not (<= 0 (+ (+ (* (- 1) var9) var7) (* (- 1) 1))))))) (inv_main92 var5 var4 var7 var9 var3 var2 var1))))
(assert (forall ((var0 Addr) (var1 Addr) (var2 Int) (var3 Int) (var4 Heap) (var5 Addr) (var6 Int) (var7 Int) (var8 Addr) (var9 Addr) (var10 Int) (var11 Int) (var12 Int) (var13 Int) (var14 Heap)) (or (not (and (and (and (and (and (and (and (and (and (and (and (and (inv_main62 var14 var13 var12 var11 var10 var9 var8) (= var5 (inner (getnode (readHeap var14 var8))))) (= var0 var8)) (= var1 var9)) (= var2 var10)) (= var7 var11)) (= var6 var12)) (= var3 var13)) (= var4 var14)) (is-O_node (readHeap var14 var8))) (= var5 nullAddr)) (not (= var7 0))) (or (not (= (+ var7 1) 0)) (not (<= 0 (+ (+ (* (- 1) var7) var6) (* (- 1) 1))))))) (inv_main92 var4 var3 var6 var7 var2 var1 var0))))
(assert (forall ((var0 Addr) (var1 Addr) (var2 Int) (var3 Int) (var4 Int) (var5 Int) (var6 Heap)) (or (not (and (and (inv_main56 var6 var5 var4 var3 var2 var1 var0) (not (= nullAddr var0))) (<= 0 (+ (+ (* (- 1) var4) var3) (* (- 1) 1))))) (inv_main92 var6 var5 var4 var3 var2 var1 var0))))
(assert (forall ((var0 Int) (var1 Addr) (var2 Addr) (var3 Addr) (var4 Int) (var5 Int) (var6 Int) (var7 Int) (var8 Heap) (var9 Addr) (var10 Int) (var11 Addr) (var12 Addr) (var13 Addr) (var14 Int) (var15 Int) (var16 Int) (var17 Int) (var18 Heap)) (or (not (and (and (and (and (and (and (and (and (and (and (and (and (inv_main69 var18 var17 var16 var15 var14 var13 var12 var11 var10) (= var9 (next (getnode (readHeap var18 var11))))) (= var0 var10)) (= var1 var11)) (= var2 var12)) (= var3 var13)) (= var4 var14)) (= var5 var15)) (= var6 var16)) (= var7 var17)) (= var8 var18)) (is-O_node (readHeap var18 var11))) (not (= var9 nullAddr)))) (inv_main69 var8 var7 var6 var5 var4 var3 var2 var9 (+ var0 1)))))
(assert (forall ((var0 Addr) (var1 Addr) (var2 Int) (var3 Int) (var4 Int) (var5 Int) (var6 Heap) (var7 Addr) (var8 Addr) (var9 Addr) (var10 Int) (var11 Int) (var12 Int) (var13 Int) (var14 Heap)) (or (not (and (and (and (and (and (and (and (and (and (and (inv_main62 var14 var13 var12 var11 var10 var9 var8) (= var7 (inner (getnode (readHeap var14 var8))))) (= var0 var8)) (= var1 var9)) (= var2 var10)) (= var3 var11)) (= var4 var12)) (= var5 var13)) (= var6 var14)) (is-O_node (readHeap var14 var8))) (not (= var7 nullAddr)))) (inv_main69 var6 var5 var4 var3 var2 var1 var0 var7 1))))
(assert (forall ((var0 Addr) (var1 Addr) (var2 Int) (var3 Int) (var4 Addr) (var5 Int) (var6 Int) (var7 Int) (var8 Int) (var9 Heap)) (or (not (and (and (inv_main49 var9 var8 var7 var6 var5 var4 var3 var2 var1 var0) (= (next (getnode (readHeap var9 var0))) nullAddr)) (is-O_node (readHeap var9 var0)))) (inv_main51 var9 var8 var7 var6 var5 var4 var3 var2 var1 var0))))
(assert (forall ((var0 Addr) (var1 Addr) (var2 Addr) (var3 Int) (var4 Int) (var5 Int) (var6 Int) (var7 Heap)) (or (not (and (inv_main84 var7 var6 var5 var4 var3 var2 var1 var0) (is-O_node (readHeap var7 var0)))) (inv_main85 var7 var6 var5 var4 var3 var2 var1 var0 (next (getnode (readHeap var7 var0)))))))
(assert (forall ((var0 Int) (var1 Addr) (var2 Int) (var3 Int) (var4 Int) (var5 Addr) (var6 Int) (var7 Int) (var8 Int) (var9 Int) (var10 Heap)) (or (not (inv_main26 var10 var9 var8 var7 var6 var5 var4 var3 var2 var1 var0)) (inv_main26 var10 var9 var8 var7 var6 var5 var4 var3 var2 var1 var0))))
(assert (forall ((var0 Int) (var1 Int) (var2 Int) (var3 Int) (var4 Addr) (var5 Int) (var6 Int) (var7 Int) (var8 Int) (var9 node) (var10 Heap) (var11 Addr) (var12 Addr) (var13 Int) (var14 Int) (var15 Int) (var16 Int) (var17 Heap)) (or (not (and (and (and (and (and (and (and (and (and (and (and (and (and (inv_main11 var17 var16 var15 var14 var13 var12) (<= 0 (+ (+ (* (- 1) var13) 10) (* (- 1) 1)))) (not (= var0 0))) (= var11 (newAddr (allocHeap var17 (O_node var9))))) (= var1 var14)) (= var2 var14)) (= var3 5)) (= var4 var12)) (= var5 var13)) (= var6 var14)) (= var7 var15)) (= var8 var16)) (= var10 (newHeap (allocHeap var17 (O_node var9))))) (= nullAddr var11))) (inv_main26 var10 var8 var7 var6 var5 var4 var3 var2 var1 var11 1))))
(assert (forall ((var0 Addr) (var1 Addr) (var2 Addr) (var3 Addr) (var4 Int) (var5 Int) (var6 Int) (var7 Int) (var8 Heap) (var9 Addr) (var10 Addr) (var11 Addr) (var12 Addr) (var13 Addr) (var14 Int) (var15 Int) (var16 Int) (var17 Int) (var18 Heap)) (or (not (and (and (and (and (and (and (and (and (and (and (and (and (inv_main85 var18 var17 var16 var15 var14 var13 var12 var11 var10) (= var9 (inner (getnode (readHeap var18 var11))))) (= var0 var10)) (= var1 var11)) (= var2 var12)) (= var3 var13)) (= var4 var14)) (= var5 var15)) (= var6 var16)) (= var7 var17)) (= var8 var18)) (is-O_node (readHeap var18 var11))) (not (= var9 nullAddr)))) (inv_main88 var8 var7 var6 var5 var4 var3 var2 var1 var0 var9))))
(assert (forall ((var0 Addr) (var1 Addr) (var2 Addr) (var3 Addr) (var4 Addr) (var5 Int) (var6 Int) (var7 Int) (var8 Int) (var9 Heap) (var10 Addr) (var11 Addr) (var12 Addr) (var13 Addr) (var14 Addr) (var15 Addr) (var16 Int) (var17 Int) (var18 Int) (var19 Int) (var20 Heap) (var21 Addr) (var22 Addr) (var23 Addr) (var24 Addr) (var25 Addr) (var26 Addr) (var27 Int) (var28 Int) (var29 Int) (var30 Int) (var31 Heap)) (or (not (and (and (and (and (and (and (and (and (and (and (and (and (and (and (and (and (and (and (and (and (and (and (and (and (inv_main88 var31 var30 var29 var28 var27 var26 var25 var24 var23 var22) (= var21 var10)) (= var0 var11)) (= var1 var12)) (= var2 var13)) (= var3 var14)) (= var4 var15)) (= var5 var16)) (= var6 var17)) (= var7 var18)) (= var8 var19)) (= var9 (writeHeap var20 var11 defObj))) (= var10 (next (getnode (readHeap var31 var22))))) (= var11 var22)) (= var12 var23)) (= var13 var24)) (= var14 var25)) (= var15 var26)) (= var16 var27)) (= var17 var28)) (= var18 var29)) (= var19 var30)) (= var20 var31)) (is-O_node (readHeap var31 var22))) (not (= var21 nullAddr)))) (inv_main88 var9 var8 var7 var6 var5 var4 var3 var2 var1 var21))))
(assert (forall ((var0 Int) (var1 Addr) (var2 Addr) (var3 Int) (var4 Int) (var5 Int) (var6 Int) (var7 Heap) (var8 Addr) (var9 Int) (var10 Addr) (var11 Addr) (var12 Int) (var13 Int) (var14 Int) (var15 Int) (var16 Heap)) (or (not (and (and (and (and (and (and (and (and (and (and (and (inv_main72 var16 var15 var14 var13 var12 var11 var10 var9) (= var8 (next (getnode (readHeap var16 var10))))) (= var0 var9)) (= var1 var10)) (= var2 var11)) (= var3 var12)) (= var4 var13)) (= var5 var14)) (= var6 var15)) (= var7 var16)) (is-O_node (readHeap var16 var10))) (not (= var8 nullAddr)))) (inv_main62 var7 var6 var5 var4 var3 var2 var8))))
(assert (forall ((var0 Addr) (var1 Addr) (var2 Int) (var3 Int) (var4 Int) (var5 Int) (var6 Heap)) (or (not (and (and (and (inv_main56 var6 var5 var4 var3 var2 var1 var0) (not (= nullAddr var0))) (not (<= 0 (+ (+ (* (- 1) var4) var3) (* (- 1) 1))))) (not (= var0 nullAddr)))) (inv_main62 var6 var5 var4 var3 var2 var1 var0))))
(assert (forall ((var0 Addr) (var1 Addr) (var2 Addr) (var3 Addr) (var4 Addr) (var5 Addr) (var6 Addr) (var7 Int) (var8 Int) (var9 Int) (var10 Int) (var11 Int) (var12 Int) (var13 Int) (var14 Int) (var15 Addr) (var16 Heap) (var17 Heap) (var18 Addr) (var19 Addr) (var20 Addr) (var21 Addr) (var22 Addr) (var23 Addr) (var24 Int) (var25 Int) (var26 Int) (var27 Int) (var28 Heap)) (or (not (and (and (and (and (and (and (and (and (and (and (and (and (and (and (and (and (and (and (and (and (and (and (and (inv_main85 var28 var27 var26 var25 var24 var23 var22 var21 var20) (= var18 (inner (getnode (readHeap var28 var21))))) (= var1 var20)) (= var15 var21)) (= var3 var22)) (= var5 var23)) (= var7 var24)) (= var9 var25)) (= var11 var26)) (= var13 var27)) (= var16 var28)) (is-O_node (readHeap var28 var21))) (= var0 var18)) (= var19 var1)) (= var2 var15)) (= var4 var3)) (= var6 var5)) (= var8 var7)) (= var10 var9)) (= var12 var11)) (= var14 var13)) (= var17 (writeHeap var16 var15 defObj))) (= var18 nullAddr)) (not (= var19 nullAddr)))) (inv_main84 var17 var14 var12 var10 var8 var6 var4 var19))))
(assert (forall ((var0 Addr) (var1 Addr) (var2 Addr) (var3 Addr) (var4 Addr) (var5 Addr) (var6 Addr) (var7 Int) (var8 Int) (var9 Int) (var10 Int) (var11 Heap) (var12 Addr) (var13 Addr) (var14 Addr) (var15 Addr) (var16 Addr) (var17 Addr) (var18 Addr) (var19 Int) (var20 Int) (var21 Int) (var22 Int) (var23 Int) (var24 Int) (var25 Int) (var26 Int) (var27 Addr) (var28 Heap) (var29 Heap) (var30 Addr) (var31 Addr) (var32 Addr) (var33 Addr) (var34 Addr) (var35 Addr) (var36 Addr) (var37 Int) (var38 Int) (var39 Int) (var40 Int) (var41 Heap)) (or (not (and (and (and (and (and (and (and (and (and (and (and (and (and (and (and (and (and (and (and (and (and (and (and (and (and (and (and (and (and (and (and (and (and (and (and (inv_main88 var41 var40 var39 var38 var37 var36 var35 var34 var33 var32) (= var30 var1)) (= var0 var2)) (= var13 var3)) (= var27 var4)) (= var15 var5)) (= var17 var6)) (= var19 var7)) (= var21 var8)) (= var23 var9)) (= var25 var10)) (= var28 (writeHeap var11 var2 defObj))) (= var1 (next (getnode (readHeap var41 var32))))) (= var2 var32)) (= var3 var33)) (= var4 var34)) (= var5 var35)) (= var6 var36)) (= var7 var37)) (= var8 var38)) (= var9 var39)) (= var10 var40)) (= var11 var41)) (is-O_node (readHeap var41 var32))) (= var12 var30)) (= var31 var13)) (= var14 var27)) (= var16 var15)) (= var18 var17)) (= var20 var19)) (= var22 var21)) (= var24 var23)) (= var26 var25)) (= var29 (writeHeap var28 var27 defObj))) (= var30 nullAddr)) (not (= var31 nullAddr)))) (inv_main84 var29 var26 var24 var22 var20 var18 var16 var31))))
(assert (forall ((var0 Addr) (var1 Addr) (var2 Int) (var3 Int) (var4 Int) (var5 Int) (var6 Heap)) (or (not (and (and (inv_main56 var6 var5 var4 var3 var2 var1 var0) (= nullAddr var0)) (not (= var1 nullAddr)))) (inv_main84 var6 var5 var4 var3 var2 var1 var0 var1))))
(assert (forall ((var0 Addr) (var1 Addr) (var2 Addr) (var3 Int) (var4 Int) (var5 Int) (var6 Heap) (var7 Addr) (var8 Int) (var9 Int) (var10 Int) (var11 Addr) (var12 Addr) (var13 Addr) (var14 Int) (var15 Int) (var16 Int) (var17 Int) (var18 Heap)) (or (not (and (and (and (and (and (and (and (and (and (and (and (and (and (inv_main69 var18 var17 var16 var15 var14 var13 var12 var11 var10) (= var7 (next (getnode (readHeap var18 var11))))) (= var8 var10)) (= var0 var11)) (= var1 var12)) (= var2 var13)) (= var3 var14)) (= var9 var15)) (= var4 var16)) (= var5 var17)) (= var6 var18)) (is-O_node (readHeap var18 var11))) (= var7 nullAddr)) (= var9 var8))) (inv_main72 var6 var5 var4 var9 var3 var2 var1 var8))))
(assert (forall ((var0 Addr) (var1 Addr) (var2 Int) (var3 Int) (var4 Int) (var5 Heap) (var6 Addr) (var7 Int) (var8 Addr) (var9 Addr) (var10 Int) (var11 Int) (var12 Int) (var13 Int) (var14 Heap)) (or (not (and (and (and (and (and (and (and (and (and (and (and (inv_main62 var14 var13 var12 var11 var10 var9 var8) (= var6 (inner (getnode (readHeap var14 var8))))) (= var0 var8)) (= var1 var9)) (= var2 var10)) (= var7 var11)) (= var3 var12)) (= var4 var13)) (= var5 var14)) (is-O_node (readHeap var14 var8))) (= var6 nullAddr)) (= var7 0))) (inv_main72 var5 var4 var3 var7 var2 var1 var0 0))))
(assert (forall ((var0 Addr) (var1 Addr) (var2 Addr) (var3 Int) (var4 Int) (var5 Addr) (var6 Int) (var7 Int) (var8 Int) (var9 Int) (var10 Heap) (var11 Addr) (var12 Addr) (var13 Int) (var14 Int) (var15 Addr) (var16 Int) (var17 Int) (var18 Int) (var19 Int) (var20 Heap)) (or (not (and (and (and (and (and (and (and (and (and (and (and (and (inv_main52 var20 var19 var18 var17 var16 var15 var14 var13 var12 var11) (= var0 (next (getnode (readHeap var20 var11))))) (= var1 var11)) (= var2 var12)) (= var3 var13)) (= var4 var14)) (= var5 var15)) (= var6 var16)) (= var7 var17)) (= var8 var18)) (= var9 var19)) (= var10 var20)) (is-O_node (readHeap var20 var11)))) (inv_main49 var10 var9 var8 var7 var6 var5 var4 var3 var2 var0))))
(assert (forall ((var0 Addr) (var1 Int) (var2 Int) (var3 Int) (var4 Int) (var5 Int) (var6 Int) (var7 Heap) (var8 Addr) (var9 Addr) (var10 Int) (var11 Int) (var12 Addr) (var13 Int) (var14 Int) (var15 Int) (var16 Int) (var17 Heap)) (or (not (and (and (and (and (and (and (and (and (and (and (and (and (inv_main46 var17 var16 var15 var14 var13 var12 var11 var10 var9) (= var0 var9)) (= var1 var10)) (= var2 var11)) (= var8 var12)) (= var3 var13)) (= var4 var14)) (= var5 var15)) (= var6 var16)) (= var7 (writeHeap var17 var9 (O_node (node nullAddr (inner (getnode (readHeap var17 var9)))))))) (is-O_node (readHeap var17 var9))) (is-O_node (readHeap var17 var9))) (not (= nullAddr var8)))) (inv_main49 var7 var6 var5 var4 var3 var8 var2 var1 var0 var8))))
(assert (forall ((var0 Addr) (var1 Int) (var2 Int) (var3 Int) (var4 Int) (var5 Heap) (var6 Int) (var7 Int) (var8 Int) (var9 Int) (var10 Heap)) (or (not (and (and (and (and (and (and (inv_main5 var10 var9 var8 var7 var6) (= var0 nullAddr)) (= var1 var6)) (= var2 var7)) (= var3 var8)) (= var4 var9)) (= var5 var10))) (inv_main8 var5 var4 var3 var4 var1 var0))))
(assert (forall ((var0 Addr) (var1 Int) (var2 Int) (var3 Int) (var4 Int) (var5 Heap)) (or (not (and (inv_main11 var5 var4 var3 var2 var1 var0) (not (<= 0 (+ (+ (* (- 1) var1) 10) (* (- 1) 1)))))) (inv_main8 var5 var4 var3 (+ var2 1) var1 var0))))
(assert (forall ((var0 Int) (var1 Addr) (var2 Int) (var3 Int) (var4 Int) (var5 Int) (var6 Heap)) (or (not (and (and (inv_main11 var6 var5 var4 var3 var2 var1) (<= 0 (+ (+ (* (- 1) var2) 10) (* (- 1) 1)))) (= var0 0))) (inv_main8 var6 var5 var4 (+ var3 1) var2 var1))))
(assert (forall ((var0 Addr) (var1 Int) (var2 Int) (var3 Int) (var4 Int) (var5 Heap)) (or (not (and (inv_main8 var5 var4 var3 var2 var1 var0) (<= 0 (+ var3 (* (- 1) var2))))) (inv_main11 var5 var4 var3 var2 0 var0))))
(assert (forall ((var0 Int) (var1 Int) (var2 Addr) (var3 Int) (var4 Int) (var5 Int) (var6 Int) (var7 Heap) (var8 Addr) (var9 Addr) (var10 Int) (var11 Int) (var12 Addr) (var13 Int) (var14 Int) (var15 Int) (var16 Int) (var17 Heap)) (or (not (and (and (and (and (and (and (and (and (and (and (inv_main51 var17 var16 var15 var14 var13 var12 var11 var10 var9 var8) (= var0 var10)) (= var1 var11)) (= var2 var12)) (= var3 var13)) (= var4 var14)) (= var5 var15)) (= var6 var16)) (= var7 (writeHeap var17 var8 (O_node (node var9 (inner (getnode (readHeap var17 var8)))))))) (is-O_node (readHeap var17 var8))) (is-O_node (readHeap var17 var8)))) (inv_main11 var7 var6 var5 var4 (+ var3 1) var2))))
(assert (forall ((var0 Addr) (var1 Int) (var2 Int) (var3 Int) (var4 Int) (var5 Int) (var6 Int) (var7 Heap) (var8 Addr) (var9 Addr) (var10 Int) (var11 Int) (var12 Addr) (var13 Int) (var14 Int) (var15 Int) (var16 Int) (var17 Heap)) (or (not (and (and (and (and (and (and (and (and (and (and (and (and (inv_main46 var17 var16 var15 var14 var13 var12 var11 var10 var9) (= var0 var9)) (= var1 var10)) (= var2 var11)) (= var8 var12)) (= var3 var13)) (= var4 var14)) (= var5 var15)) (= var6 var16)) (= var7 (writeHeap var17 var9 (O_node (node nullAddr (inner (getnode (readHeap var17 var9)))))))) (is-O_node (readHeap var17 var9))) (is-O_node (readHeap var17 var9))) (= nullAddr var8))) (inv_main11 var7 var6 var5 var4 (+ var3 1) var0))))
(assert (forall ((var0 Addr) (var1 Int) (var2 Int) (var3 Int) (var4 Addr) (var5 Int) (var6 Int) (var7 Int) (var8 Int) (var9 Heap) (var10 Addr) (var11 Int) (var12 Int) (var13 Int) (var14 Addr) (var15 Int) (var16 Int) (var17 Int) (var18 Int) (var19 Heap)) (or (not (and (and (and (and (and (and (and (and (and (and (and (and (inv_main29 var19 var18 var17 var16 var15 var14 var13 var12 var11 var10) (= var0 var10)) (= var1 var11)) (= var2 var12)) (= var3 var13)) (= var4 var14)) (= var5 var15)) (= var6 var16)) (= var7 var17)) (= var8 var18)) (= var9 (writeHeap var19 var10 (O_node (node nullAddr (inner (getnode (readHeap var19 var10)))))))) (is-O_node (readHeap var19 var10))) (is-O_node (readHeap var19 var10)))) (inv_main46 var9 var8 var7 var6 var5 var4 var3 var2 var0))))
(assert (forall ((var0 Addr) (var1 Int) (var2 Addr) (var3 Int) (var4 Int) (var5 Int) (var6 Addr) (var7 Int) (var8 Int) (var9 Int) (var10 Int) (var11 node) (var12 Heap) (var13 Addr) (var14 Addr) (var15 Int) (var16 Addr) (var17 Int) (var18 Int) (var19 Int) (var20 Addr) (var21 Int) (var22 Int) (var23 Int) (var24 Int) (var25 Heap)) (or (not (and (and (and (and (and (and (and (and (and (and (and (and (and (and (and (inv_main33 var25 var24 var23 var22 var21 var20 var19 var18 var17 var16 var15 var14) (<= 0 (+ var15 (* (- 1) 1)))) (= var13 (newAddr (allocHeap var25 (O_node var11))))) (= var0 var14)) (= var1 var15)) (= var2 var16)) (= var3 var17)) (= var4 var18)) (= var5 var19)) (= var6 var20)) (= var7 var21)) (= var8 var22)) (= var9 var23)) (= var10 var24)) (= var12 (newHeap (allocHeap var25 (O_node var11))))) (not (= nullAddr var13)))) (inv_main37 var12 var10 var9 var8 var7 var6 var5 var4 var3 var2 var1 var0 var13))))
(assert (forall ((var0 Addr) (var1 Addr) (var2 Int) (var3 Int) (var4 Addr) (var5 Int) (var6 Int) (var7 Int) (var8 Int) (var9 Heap)) (or (not (and (and (inv_main49 var9 var8 var7 var6 var5 var4 var3 var2 var1 var0) (not (= (next (getnode (readHeap var9 var0))) nullAddr))) (is-O_node (readHeap var9 var0)))) (inv_main52 var9 var8 var7 var6 var5 var4 var3 var2 var1 var0))))
(assert (forall ((var0 Addr) (var1 Addr) (var2 Int) (var3 Addr) (var4 Int) (var5 Int) (var6 Int) (var7 Addr) (var8 Int) (var9 Int) (var10 Int) (var11 Int) (var12 Heap)) (not (and (inv_main37 var12 var11 var10 var9 var8 var7 var6 var5 var4 var3 var2 var1 var0) (not (is-O_node (readHeap var12 var0)))))))
(assert (forall ((var0 Addr) (var1 Addr) (var2 Int) (var3 Addr) (var4 Int) (var5 Int) (var6 Int) (var7 Addr) (var8 Int) (var9 Int) (var10 Int) (var11 Int) (var12 Heap)) (not (and (and (inv_main37 var12 var11 var10 var9 var8 var7 var6 var5 var4 var3 var2 var1 var0) (not (is-O_node (readHeap var12 var0)))) (is-O_node (readHeap var12 var0))))))
(assert (forall ((var0 Addr) (var1 Addr) (var2 Int) (var3 Int) (var4 Int) (var5 Addr) (var6 Int) (var7 Int) (var8 Int) (var9 Int) (var10 Heap)) (not (and (inv_main31 var10 var9 var8 var7 var6 var5 var4 var3 var2 var1 var0) (not (is-O_node (readHeap var10 var1)))))))
(assert (forall ((var0 Addr) (var1 Addr) (var2 Int) (var3 Int) (var4 Int) (var5 Addr) (var6 Int) (var7 Int) (var8 Int) (var9 Int) (var10 Heap)) (not (and (and (inv_main31 var10 var9 var8 var7 var6 var5 var4 var3 var2 var1 var0) (not (is-O_node (readHeap var10 var1)))) (is-O_node (readHeap var10 var1))))))
(assert (forall ((var0 Addr) (var1 Int) (var2 Int) (var3 Int) (var4 Addr) (var5 Int) (var6 Int) (var7 Int) (var8 Int) (var9 Heap)) (not (and (inv_main29 var9 var8 var7 var6 var5 var4 var3 var2 var1 var0) (not (is-O_node (readHeap var9 var0)))))))
(assert (forall ((var0 Addr) (var1 Int) (var2 Int) (var3 Int) (var4 Addr) (var5 Int) (var6 Int) (var7 Int) (var8 Int) (var9 Heap)) (not (and (and (inv_main29 var9 var8 var7 var6 var5 var4 var3 var2 var1 var0) (not (is-O_node (readHeap var9 var0)))) (is-O_node (readHeap var9 var0))))))
(assert (forall ((var0 Addr) (var1 Int) (var2 Int) (var3 Addr) (var4 Int) (var5 Int) (var6 Int) (var7 Int) (var8 Heap)) (not (and (inv_main46 var8 var7 var6 var5 var4 var3 var2 var1 var0) (not (is-O_node (readHeap var8 var0)))))))
(assert (forall ((var0 Addr) (var1 Int) (var2 Int) (var3 Addr) (var4 Int) (var5 Int) (var6 Int) (var7 Int) (var8 Heap)) (not (and (and (inv_main46 var8 var7 var6 var5 var4 var3 var2 var1 var0) (not (is-O_node (readHeap var8 var0)))) (is-O_node (readHeap var8 var0))))))
(assert (forall ((var0 Addr) (var1 Addr) (var2 Int) (var3 Int) (var4 Addr) (var5 Int) (var6 Int) (var7 Int) (var8 Int) (var9 Heap)) (not (and (inv_main49 var9 var8 var7 var6 var5 var4 var3 var2 var1 var0) (not (is-O_node (readHeap var9 var0)))))))
(assert (forall ((var0 Addr) (var1 Addr) (var2 Int) (var3 Int) (var4 Addr) (var5 Int) (var6 Int) (var7 Int) (var8 Int) (var9 Heap)) (not (and (inv_main52 var9 var8 var7 var6 var5 var4 var3 var2 var1 var0) (not (is-O_node (readHeap var9 var0)))))))
(assert (forall ((var0 Addr) (var1 Addr) (var2 Int) (var3 Int) (var4 Addr) (var5 Int) (var6 Int) (var7 Int) (var8 Int) (var9 Heap)) (not (and (inv_main51 var9 var8 var7 var6 var5 var4 var3 var2 var1 var0) (not (is-O_node (readHeap var9 var0)))))))
(assert (forall ((var0 Addr) (var1 Addr) (var2 Int) (var3 Int) (var4 Addr) (var5 Int) (var6 Int) (var7 Int) (var8 Int) (var9 Heap)) (not (and (and (inv_main51 var9 var8 var7 var6 var5 var4 var3 var2 var1 var0) (not (is-O_node (readHeap var9 var0)))) (is-O_node (readHeap var9 var0))))))
(assert (forall ((var0 Addr) (var1 Addr) (var2 Int) (var3 Int) (var4 Int) (var5 Int) (var6 Heap)) (not (and (inv_main62 var6 var5 var4 var3 var2 var1 var0) (not (is-O_node (readHeap var6 var0)))))))
(assert (forall ((var0 Int) (var1 Addr) (var2 Addr) (var3 Addr) (var4 Int) (var5 Int) (var6 Int) (var7 Int) (var8 Heap)) (not (and (inv_main69 var8 var7 var6 var5 var4 var3 var2 var1 var0) (not (is-O_node (readHeap var8 var1)))))))
(assert (forall ((var0 Int) (var1 Addr) (var2 Addr) (var3 Int) (var4 Int) (var5 Int) (var6 Int) (var7 Heap)) (not (and (inv_main72 var7 var6 var5 var4 var3 var2 var1 var0) (not (is-O_node (readHeap var7 var1)))))))
(assert (forall ((var0 Addr) (var1 Addr) (var2 Addr) (var3 Int) (var4 Int) (var5 Int) (var6 Int) (var7 Heap)) (not (and (inv_main84 var7 var6 var5 var4 var3 var2 var1 var0) (not (is-O_node (readHeap var7 var0)))))))
(assert (forall ((var0 Addr) (var1 Addr) (var2 Addr) (var3 Addr) (var4 Int) (var5 Int) (var6 Int) (var7 Int) (var8 Heap)) (not (and (inv_main85 var8 var7 var6 var5 var4 var3 var2 var1 var0) (not (is-O_node (readHeap var8 var1)))))))
(assert (forall ((var0 Addr) (var1 Addr) (var2 Addr) (var3 Addr) (var4 Addr) (var5 Int) (var6 Int) (var7 Int) (var8 Int) (var9 Heap)) (not (and (inv_main88 var9 var8 var7 var6 var5 var4 var3 var2 var1 var0) (not (is-O_node (readHeap var9 var0)))))))
(assert (forall ((var0 Addr) (var1 Addr) (var2 Int) (var3 Int) (var4 Int) (var5 Int) (var6 Heap)) (not (inv_main92 var6 var5 var4 var3 var2 var1 var0))))
(check-sat)
